
  12    4
  10   10   10   10

   0   0   0   0   0   4 2 3 4 5 
   9  10  10  10  10   3 11 9 6 
   9  10  10  10  10   3 11 8 7 
   5  10  10  10  10   2 11 6 
   8  10  10  10  10   2 11 6 
   6  10  10  10  10   1 7 
   4  10  10  10  10   1 10 
   2  10  10  10  10   1 10 
   5  10  10  10  10   1 10 
   2  10  10  10  10   1 12
   2  10  10  10  10   1 12
   0   0   0   0   0   0 
